  80   13515450
18  1 17 50 47 46 26 51 62 28
37 25 57 41 16 53 43 22 67 66
52 13 48 61 76 79 80 45 55 70
11 44 42 77 27  5 29 24 69 71 
4  30  6 23 75 74 12  9 73 10
68 20 78 34 14  3 21 63 40 39
56  7 64 60 15 49  2 35 59 36
32 65 72 31 58 19 54 38 33  8

